c colouring generated by benchmark framework
p edge 933 4640
v 1 1
v 2 4
v 3 0
v 4 0
v 5 4
v 6 2
v 7 3
v 8 0
v 9 2
v 10 4
v 11 3
v 12 1
v 13 4
v 14 0
v 15 2
v 16 1
v 17 3
v 18 0
v 19 5
v 20 1
v 21 3
v 22 2
v 23 1
v 24 3
v 25 2
v 26 2
v 27 0
v 28 2
v 29 3
v 30 0
v 31 0
v 32 3
v 33 2
v 34 1
v 35 0
v 36 1
v 37 1
v 38 2
v 39 1
v 40 1
v 41 2
v 42 2
v 43 0
v 44 3
v 45 0
v 46 2
v 47 1
v 48 1
v 49 3
v 50 1
v 51 3
v 52 0
v 53 0
v 54 1
v 55 4
v 56 0
v 57 0
v 58 2
v 59 4
v 60 3
v 61 2
v 62 1
v 63 4
v 64 0
v 65 2
v 66 1
v 67 0
v 68 2
v 69 1
v 70 0
v 71 2
v 72 4
v 73 4
v 74 0
v 75 4
v 76 1
v 77 2
v 78 1
v 79 0
v 80 5
v 81 0
v 82 1
v 83 2
v 84 0
v 85 0
v 86 0
v 87 0
v 88 0
v 89 1
v 90 3
v 91 3
v 92 2
v 93 2
v 94 4
v 95 2
v 96 0
v 97 2
v 98 4
v 99 2
v 100 1
v 101 3
v 102 3
v 103 3
v 104 1
v 105 3
v 106 3
v 107 1
v 108 4
v 109 3
v 110 3
v 111 0
v 112 2
v 113 0
v 114 0
v 115 4
v 116 1
v 117 1
v 118 1
v 119 4
v 120 1
v 121 4
v 122 1
v 123 0
v 124 2
v 125 3
v 126 2
v 127 4
v 128 1
v 129 0
v 130 1
v 131 4
v 132 5
v 133 5
v 134 0
v 135 0
v 136 4
v 137 3
v 138 3
v 139 2
v 140 3
v 141 0
v 142 2
v 143 1
v 144 5
v 145 2
v 146 0
v 147 3
v 148 1
v 149 1
v 150 3
v 151 0
v 152 0
v 153 4
v 154 0
v 155 2
v 156 4
v 157 2
v 158 1
v 159 1
v 160 2
v 161 1
v 162 2
v 163 0
v 164 3
v 165 2
v 166 3
v 167 0
v 168 1
v 169 1
v 170 1
v 171 3
v 172 3
v 173 0
v 174 2
v 175 1
v 176 4
v 177 1
v 178 0
v 179 3
v 180 0
v 181 3
v 182 4
v 183 6
v 184 1
v 185 5
v 186 0
v 187 3
v 188 0
v 189 2
v 190 3
v 191 2
v 192 1
v 193 2
v 194 3
v 195 2
v 196 1
v 197 3
v 198 2
v 199 3
v 200 4
v 201 3
v 202 0
v 203 0
v 204 0
v 205 1
v 206 1
v 207 3
v 208 2
v 209 4
v 210 0
v 211 3
v 212 1
v 213 3
v 214 2
v 215 2
v 216 3
v 217 1
v 218 1
v 219 1
v 220 1
v 221 4
v 222 1
v 223 0
v 224 1
v 225 4
v 226 0
v 227 0
v 228 4
v 229 0
v 230 1
v 231 1
v 232 0
v 233 1
v 234 2
v 235 1
v 236 2
v 237 0
v 238 3
v 239 2
v 240 0
v 241 0
v 242 3
v 243 1
v 244 0
v 245 3
v 246 3
v 247 4
v 248 3
v 249 0
v 250 2
v 251 4
v 252 3
v 253 3
v 254 1
v 255 3
v 256 1
v 257 2
v 258 3
v 259 3
v 260 4
v 261 5
v 262 2
v 263 1
v 264 3
v 265 1
v 266 4
v 267 1
v 268 3
v 269 3
v 270 0
v 271 3
v 272 3
v 273 0
v 274 0
v 275 1
v 276 1
v 277 2
v 278 0
v 279 4
v 280 2
v 281 1
v 282 2
v 283 0
v 284 4
v 285 1
v 286 1
v 287 3
v 288 0
v 289 0
v 290 4
v 291 1
v 292 2
v 293 1
v 294 2
v 295 4
v 296 1
v 297 0
v 298 2
v 299 3
v 300 3
v 301 3
v 302 2
v 303 1
v 304 0
v 305 3
v 306 0
v 307 2
v 308 2
v 309 5
v 310 0
v 311 2
v 312 2
v 313 0
v 314 1
v 315 4
v 316 4
v 317 4
v 318 5
v 319 0
v 320 3
v 321 1
v 322 1
v 323 1
v 324 2
v 325 1
v 326 0
v 327 2
v 328 2
v 329 0
v 330 1
v 331 4
v 332 0
v 333 1
v 334 3
v 335 1
v 336 2
v 337 2
v 338 1
v 339 4
v 340 2
v 341 4
v 342 0
v 343 5
v 344 1
v 345 3
v 346 4
v 347 5
v 348 0
v 349 1
v 350 1
v 351 3
v 352 3
v 353 2
v 354 1
v 355 2
v 356 2
v 357 4
v 358 2
v 359 3
v 360 4
v 361 1
v 362 4
v 363 2
v 364 2
v 365 0
v 366 1
v 367 0
v 368 4
v 369 2
v 370 3
v 371 0
v 372 0
v 373 0
v 374 0
v 375 1
v 376 2
v 377 0
v 378 3
v 379 3
v 380 4
v 381 0
v 382 4
v 383 2
v 384 2
v 385 3
v 386 2
v 387 5
v 388 0
v 389 0
v 390 0
v 391 0
v 392 1
v 393 3
v 394 1
v 395 1
v 396 0
v 397 2
v 398 0
v 399 1
v 400 2
v 401 3
v 402 2
v 403 0
v 404 0
v 405 3
v 406 1
v 407 0
v 408 2
v 409 1
v 410 0
v 411 0
v 412 0
v 413 0
v 414 3
v 415 3
v 416 0
v 417 4
v 418 4
v 419 1
v 420 1
v 421 0
v 422 2
v 423 4
v 424 1
v 425 3
v 426 1
v 427 3
v 428 0
v 429 5
v 430 2
v 431 1
v 432 0
v 433 0
v 434 3
v 435 2
v 436 4
v 437 2
v 438 3
v 439 2
v 440 2
v 441 1
v 442 1
v 443 4
v 444 3
v 445 2
v 446 3
v 447 1
v 448 3
v 449 0
v 450 2
v 451 4
v 452 3
v 453 0
v 454 3
v 455 4
v 456 1
v 457 0
v 458 2
v 459 0
v 460 2
v 461 0
v 462 4
v 463 4
v 464 0
v 465 2
v 466 3
v 467 5
v 468 2
v 469 4
v 470 0
v 471 1
v 472 3
v 473 1
v 474 3
v 475 3
v 476 3
v 477 1
v 478 4
v 479 2
v 480 4
v 481 2
v 482 2
v 483 1
v 484 1
v 485 5
v 486 4
v 487 5
v 488 4
v 489 2
v 490 3
v 491 1
v 492 1
v 493 1
v 494 4
v 495 0
v 496 0
v 497 0
v 498 2
v 499 0
v 500 1
v 501 2
v 502 2
v 503 2
v 504 0
v 505 1
v 506 4
v 507 3
v 508 0
v 509 2
v 510 2
v 511 2
v 512 2
v 513 3
v 514 1
v 515 3
v 516 1
v 517 2
v 518 3
v 519 3
v 520 2
v 521 5
v 522 2
v 523 4
v 524 2
v 525 2
v 526 3
v 527 0
v 528 4
v 529 3
v 530 4
v 531 0
v 532 1
v 533 2
v 534 4
v 535 2
v 536 0
v 537 3
v 538 3
v 539 1
v 540 1
v 541 2
v 542 1
v 543 0
v 544 1
v 545 2
v 546 4
v 547 1
v 548 3
v 549 0
v 550 2
v 551 2
v 552 2
v 553 3
v 554 4
v 555 2
v 556 2
v 557 2
v 558 1
v 559 0
v 560 3
v 561 2
v 562 3
v 563 3
v 564 2
v 565 3
v 566 5
v 567 2
v 568 1
v 569 0
v 570 5
v 571 1
v 572 1
v 573 0
v 574 4
v 575 2
v 576 1
v 577 2
v 578 3
v 579 0
v 580 4
v 581 3
v 582 1
v 583 2
v 584 3
v 585 2
v 586 1
v 587 2
v 588 3
v 589 5
v 590 1
v 591 0
v 592 2
v 593 2
v 594 2
v 595 1
v 596 0
v 597 2
v 598 0
v 599 0
v 600 4
v 601 2
v 602 3
v 603 3
v 604 2
v 605 2
v 606 1
v 607 3
v 608 1
v 609 1
v 610 0
v 611 1
v 612 3
v 613 0
v 614 0
v 615 2
v 616 2
v 617 2
v 618 1
v 619 2
v 620 5
v 621 1
v 622 4
v 623 3
v 624 3
v 625 0
v 626 2
v 627 1
v 628 0
v 629 1
v 630 4
v 631 3
v 632 4
v 633 4
v 634 0
v 635 1
v 636 3
v 637 3
v 638 2
v 639 4
v 640 1
v 641 0
v 642 1
v 643 0
v 644 3
v 645 5
v 646 2
v 647 3
v 648 2
v 649 0
v 650 2
v 651 3
v 652 1
v 653 1
v 654 2
v 655 1
v 656 0
v 657 1
v 658 1
v 659 3
v 660 3
v 661 3
v 662 3
v 663 1
v 664 2
v 665 2
v 666 0
v 667 2
v 668 2
v 669 3
v 670 3
v 671 0
v 672 4
v 673 1
v 674 3
v 675 3
v 676 0
v 677 0
v 678 0
v 679 4
v 680 3
v 681 0
v 682 1
v 683 0
v 684 3
v 685 2
v 686 1
v 687 0
v 688 3
v 689 1
v 690 1
v 691 0
v 692 2
v 693 4
v 694 1
v 695 2
v 696 0
v 697 0
v 698 2
v 699 0
v 700 4
v 701 1
v 702 4
v 703 3
v 704 4
v 705 1
v 706 1
v 707 2
v 708 5
v 709 4
v 710 1
v 711 0
v 712 3
v 713 3
v 714 4
v 715 1
v 716 0
v 717 4
v 718 0
v 719 3
v 720 0
v 721 3
v 722 2
v 723 4
v 724 0
v 725 0
v 726 4
v 727 2
v 728 3
v 729 3
v 730 0
v 731 1
v 732 2
v 733 1
v 734 3
v 735 0
v 736 0
v 737 2
v 738 0
v 739 2
v 740 2
v 741 1
v 742 0
v 743 1
v 744 1
v 745 1
v 746 2
v 747 0
v 748 3
v 749 2
v 750 3
v 751 0
v 752 0
v 753 1
v 754 0
v 755 2
v 756 2
v 757 4
v 758 4
v 759 1
v 760 1
v 761 2
v 762 0
v 763 2
v 764 0
v 765 0
v 766 2
v 767 3
v 768 0
v 769 0
v 770 2
v 771 0
v 772 0
v 773 5
v 774 3
v 775 3
v 776 0
v 777 1
v 778 0
v 779 3
v 780 0
v 781 2
v 782 2
v 783 2
v 784 4
v 785 1
v 786 1
v 787 3
v 788 1
v 789 1
v 790 1
v 791 1
v 792 2
v 793 3
v 794 0
v 795 0
v 796 2
v 797 1
v 798 3
v 799 2
v 800 1
v 801 0
v 802 0
v 803 4
v 804 2
v 805 3
v 806 4
v 807 0
v 808 2
v 809 0
v 810 4
v 811 3
v 812 0
v 813 2
v 814 0
v 815 0
v 816 0
v 817 1
v 818 2
v 819 0
v 820 1
v 821 2
v 822 4
v 823 0
v 824 1
v 825 4
v 826 4
v 827 2
v 828 3
v 829 1
v 830 2
v 831 1
v 832 3
v 833 4
v 834 5
v 835 1
v 836 5
v 837 2
v 838 2
v 839 1
v 840 0
v 841 2
v 842 3
v 843 5
v 844 3
v 845 3
v 846 1
v 847 3
v 848 4
v 849 0
v 850 5
v 851 2
v 852 1
v 853 0
v 854 2
v 855 3
v 856 2
v 857 0
v 858 3
v 859 4
v 860 0
v 861 2
v 862 1
v 863 4
v 864 0
v 865 3
v 866 5
v 867 1
v 868 3
v 869 2
v 870 1
v 871 4
v 872 0
v 873 0
v 874 1
v 875 2
v 876 1
v 877 0
v 878 4
v 879 0
v 880 0
v 881 0
v 882 1
v 883 2
v 884 1
v 885 2
v 886 5
v 887 1
v 888 0
v 889 3
v 890 4
v 891 4
v 892 1
v 893 4
v 894 1
v 895 1
v 896 2
v 897 3
v 898 3
v 899 4
v 900 0
v 901 1
v 902 0
v 903 1
v 904 4
v 905 0
v 906 0
v 907 2
v 908 2
v 909 0
v 910 0
v 911 0
v 912 3
v 913 0
v 914 0
v 915 4
v 916 0
v 917 3
v 918 1
v 919 3
v 920 4
v 921 1
v 922 0
v 923 2
v 924 5
v 925 0
v 926 3
v 927 0
v 928 0
v 929 4
v 930 0
v 931 2
v 932 1
v 933 3
